db/data/2926719054129932350027874144382636723126.z3.out
-------------------
2500.166908465
